CaTiO3                                  
   3.88220000000000     
     1.0000000000000000    0.0000000000000000    0.0000000000000000
     0.0000000000000000    1.0000000000000000    0.0000000000000000
     0.0000000000000000    0.0000000000000000    1.0000000000000000
   Ti   Ca   O 
     1     1     3
Direct
  0.0108272279161827  0.0162045346466204  0.0190871303479694
  0.5246031920122527  0.5411364870130240  0.5488820777512229
  0.4958691437007207 -0.0148801022156543 -0.0160099969405580
 -0.0104151308102354  0.4948121861498513 -0.0176301567005719
 -0.0108844328189225 -0.0172731055938380  0.4956709455419388
 
  0.00000000E+00  0.00000000E+00  0.00000000E+00
  0.00000000E+00  0.00000000E+00  0.00000000E+00
  0.00000000E+00  0.00000000E+00  0.00000000E+00
  0.00000000E+00  0.00000000E+00  0.00000000E+00
  0.00000000E+00  0.00000000E+00  0.00000000E+00
