CaTiO3                                  
   3.88220000000000     
     1.0000000000000000    0.0000000000000000    0.0000000000000000
     0.0000000000000000    1.0000000000000000    0.0000000000000000
     0.0000000000000000    0.0000000000000000    1.0000000000000000
   Ti   Ca   O 
     1     1     3
Direct
  0.0125455864399956  0.0125455864399956  0.0125455864399956
  0.5345174955598478  0.5345174955598478  0.5345174955598478
  0.4888424339172870 -0.0129527579585663 -0.0129527579585663
 -0.0129527579585663  0.4888424339172870 -0.0129527579585663
 -0.0129527579585663 -0.0129527579585663  0.4888424339172870
 
  0.00000000E+00  0.00000000E+00  0.00000000E+00
  0.00000000E+00  0.00000000E+00  0.00000000E+00
  0.00000000E+00  0.00000000E+00  0.00000000E+00
  0.00000000E+00  0.00000000E+00  0.00000000E+00
  0.00000000E+00  0.00000000E+00  0.00000000E+00
