CaTiO3                                  
   3.88220000000000     
     1.0000000000000000    0.0000000000000000    0.0000000000000000
     0.0000000000000000    1.0000000000000000    0.0000000000000000
     0.0000000000000000    0.0000000000000000    1.0000000000000000
   Ti   Ca   O 
     1     1     3
Direct
  0.0137673839652674  0.0137673839652674  0.0137673839652674
  0.5345335309007792  0.5345335309007792  0.5345335309007792
  0.4933692591888411 -0.0158350870274449 -0.0158350870274449
 -0.0158350870274449  0.4933692591888411 -0.0158350870274449
 -0.0158350870274449 -0.0158350870274449  0.4933692591888411
 
  0.00000000E+00  0.00000000E+00  0.00000000E+00
  0.00000000E+00  0.00000000E+00  0.00000000E+00
  0.00000000E+00  0.00000000E+00  0.00000000E+00
  0.00000000E+00  0.00000000E+00  0.00000000E+00
  0.00000000E+00  0.00000000E+00  0.00000000E+00
