CaTiO3                                  
   3.88220000000000     
     1.0000000000000000    0.0000000000000000    0.0000000000000000
     0.0000000000000000    1.0000000000000000    0.0000000000000000
     0.0000000000000000    0.0000000000000000    1.0000000000000000
   Ti   Ca   O 
     1     1     3
Direct
  0.0098264362421201  0.0161581550721411  0.0206262644264367
  0.5180622775614345  0.5351826297515979  0.5526435035255822
  0.4971975057535638 -0.0120270324761077 -0.0183966494946787
 -0.0070361782059100  0.4957535116782827 -0.0199792044780850
 -0.0080500413512105 -0.0150672640259109  0.4951060860207458
 
  0.00000000E+00  0.00000000E+00  0.00000000E+00
  0.00000000E+00  0.00000000E+00  0.00000000E+00
  0.00000000E+00  0.00000000E+00  0.00000000E+00
  0.00000000E+00  0.00000000E+00  0.00000000E+00
  0.00000000E+00  0.00000000E+00  0.00000000E+00
