CaTiO3
3.8822
1 0 0
0 1 0
0 0 1
Ti Ca O
1  1  3
Direct
0.0 0.0 0.0
0.51 0.51 0.51
0.5 0.0 0.0
0.0 0.5 0.0
0.0 0.0 0.5

