CaTiO3
3.8822
1 0 0
0 1 0
0 0 1
Ti Ca O
1  1  3
Select
Direct
0.01 0.01 0.01 T T T
0.5 0.5 0.5 T T T
0.5 0.0 0.0 F F F
0.0 0.5 0.0 F F F
0.0 0.0 0.5 F F F

